NAME : generated_instances_uncapacitated\uncap_22_customers_2
COMMENT : (A-GENERATED-INSTANCE, UNCAPACITATED)
TYPE : CVRP
DIMENSION : 23
EDGE_WEIGHT_TYPE : EUC_2D
CAPACITY : 314
NODE_COORD_SECTION
 1 17 43
 2 48 6
 3 28 26
 4 28 37
 5 33 49
 6 32 17
 7 46 11
 8 35 6
 9 15 43
 10 19 24
 11 15 17
 12 50 21
 13 29 30
 14 6 26
 15 23 32
 16 45 44
 17 29 31
 18 43 3
 19 47 22
 20 4 24
 21 0 15
 22 46 33
 23 20 37
DEMAND_SECTION
1 0
2 15
3 14
4 9
5 8
6 15
7 17
8 19
9 15
10 15
11 13
12 19
13 11
14 14
15 15
16 19
17 13
18 14
19 12
20 8
21 19
22 20
23 10
DEPOT_SECTION
 1
-1
EOF
